(set-logic HORN)
(set-info :source |
    Benchmark: C_VC
    Output by Princess (http://www.philipp.ruemmer.org/princess.shtml)
|)
(set-info :status sat)
(declare-heap Heap Addr HeapObject
 defObj
 ((HeapObject 0) (node 0)) (
  (
   (O_Int (getInt Int))
   (O_UInt (getUInt Int))
   (O_Addr (getAddr Addr))
   (O_node (getnode node))
   (defObj)
  )
  (
   (node (next Addr) (prev Addr) (data Int))
  )
))
(declare-fun inv_main12 (Heap Int Int Int Int Int Addr) Bool)
(declare-fun inv_main15 (Heap Int Int Int Int Int Addr Int) Bool)
(declare-fun inv_main18 (Heap Int Int Int Int Int Addr) Bool)
(declare-fun inv_main19 (Heap Int Int Int Int Int Addr) Bool)
(declare-fun inv_main22 (Heap Int Int Int Int Addr Addr) Bool)
(declare-fun inv_main23 (Heap Int Int Int Int Addr Addr) Bool)
(declare-fun inv_main29 (Heap Int Int Int Int Addr Addr Int Addr) Bool)
(declare-fun inv_main32 (Heap Int Int Int Int Addr Addr Int Addr Int) Bool)
(declare-fun inv_main35 (Heap Int Int Int Int Addr Addr Int Addr) Bool)
(declare-fun inv_main36 (Heap Int Int Int Int Addr Addr Int Addr) Bool)
(declare-fun inv_main38 (Heap Int Int Int Int Addr Addr Addr) Bool)
(declare-fun inv_main4 (Heap Int Int) Bool)
(declare-fun inv_main41 (Heap Int Int Int Int Addr Addr Addr) Bool)
(declare-fun inv_main44 (Heap Int Int Int Int Addr Addr) Bool)
(declare-fun inv_main49 (Heap Int Int Addr Int) Bool)
(declare-fun inv_main56 (Heap Int Int Addr Int Int Addr Int Int) Bool)
(declare-fun inv_main57 (Heap Int Int Addr Int Int Addr Int Int) Bool)
(declare-fun inv_main61 (Heap Int Int Addr Int) Bool)
(declare-fun inv_main70 (Heap Int Int Addr Int Int Addr Int) Bool)
(declare-fun inv_main71 (Heap Int Int Addr Int Int Addr Int) Bool)
(declare-fun inv_main78 (Heap Int Int Addr Int Addr) Bool)
(declare-fun inv_main82 (Heap Int Int Addr Int Addr Addr) Bool)
(declare-fun inv_main85 (Heap Int Int Addr Int) Bool)
(assert (forall ((var0 Heap)) (or (not (= var0 emptyHeap)) (inv_main4 var0 2 1))))
(assert (forall ((var0 Addr) (var1 Int) (var2 Addr) (var3 Int) (var4 Int) (var5 Addr) (var6 Int) (var7 Int) (var8 Heap) (var9 Int) (var10 Int) (var11 Int) (var12 Addr) (var13 Int) (var14 Int) (var15 Addr) (var16 Int) (var17 Int) (var18 Heap)) (or (not (and (inv_main57 var18 var17 var16 var15 var14 var13 var12 var11 var10) (and (not (<= 0 (+ (+ var9 (- 1)) (- 1)))) (and (is-O_node (read var18 var12)) (and (and (and (and (and (and (and (and (and (= var8 var18) (= var7 var17)) (= var6 var16)) (= var5 var15)) (= var4 var14)) (= var3 var13)) (= var2 var12)) (= var1 var11)) (= var9 var10)) (= var0 (next (getnode (read var18 var12))))))))) (inv_main56 var8 var7 var6 var5 var4 var3 var0 var1 (+ var9 (- 1))))))
(assert (forall ((var0 Int) (var1 Addr) (var2 Int) (var3 Int) (var4 Heap)) (or (not (and (inv_main49 var4 var3 var2 var1 var0) (and (not (<= 0 (+ var0 (- 1)))) (<= 0 (+ (+ var0 1) (- 1)))))) (inv_main56 var4 var3 var2 var1 var0 (+ var0 var3) var1 (+ var0 var3) var0))))
(assert (forall ((var0 Addr) (var1 Int) (var2 Addr) (var3 Addr) (var4 Int) (var5 Int) (var6 Int) (var7 Int) (var8 Heap)) (or (not (and (inv_main29 var8 var7 var6 var5 var4 var3 var2 var1 var0) (is-O_node (read var8 var0)))) (inv_main35 (write var8 var0 (O_node (node nullAddr (prev (getnode (read var8 var0))) (data (getnode (read var8 var0)))))) var7 var6 var5 var4 var3 var2 var1 var0))))
(assert (forall ((var0 Addr) (var1 Addr) (var2 Int) (var3 Int) (var4 Int) (var5 Int) (var6 Heap)) (or (not (and (inv_main22 var6 var5 var4 var3 var2 var1 var0) (not (<= 0 (+ (+ var3 (- 1)) (- 1)))))) (inv_main23 var6 var5 var4 var3 var2 var1 var0))))
(assert (forall ((var0 Addr) (var1 Addr) (var2 Int) (var3 Int) (var4 Int) (var5 Int) (var6 Heap)) (or (not (and (inv_main23 var6 var5 var4 var3 var2 var1 var0) (is-O_node (read var6 var0)))) (inv_main44 (write var6 var0 (O_node (node var1 (prev (getnode (read var6 var0))) (data (getnode (read var6 var0)))))) var5 var4 var3 var2 var1 var0))))
(assert (forall ((var0 Addr) (var1 Addr) (var2 Int) (var3 Int) (var4 Addr) (var5 Int) (var6 Int) (var7 Heap) (var8 Int) (var9 Int) (var10 Addr) (var11 Int) (var12 Int) (var13 Addr) (var14 Int) (var15 Int) (var16 Heap)) (or (not (and (inv_main71 var16 var15 var14 var13 var12 var11 var10 var9) (and (not (<= 0 (+ (+ var8 (- 1)) (- 1)))) (and (is-O_node (read var16 var10)) (and (and (and (and (and (and (and (and (= var7 var16) (= var6 var15)) (= var5 var14)) (= var4 var13)) (= var3 var12)) (= var2 var11)) (= var1 var10)) (= var8 var9)) (= var0 (next (getnode (read var16 var10))))))))) (inv_main70 var7 var6 var5 var4 var3 var2 var0 (+ var8 (- 1))))))
(assert (forall ((var0 Int) (var1 Addr) (var2 Int) (var3 Int) (var4 Heap)) (or (not (and (inv_main61 var4 var3 var2 var1 var0) (and (not (<= 0 (+ var0 (- 1)))) (<= 0 (+ (+ var0 1) (- 1)))))) (inv_main70 var4 var3 var2 var1 var0 (+ var0 var3) var1 var0))))
(assert (forall ((var0 Addr) (var1 Addr) (var2 Int) (var3 Int) (var4 Addr) (var5 Int) (var6 Int) (var7 Heap) (var8 Int) (var9 Int) (var10 Addr) (var11 Int) (var12 Int) (var13 Addr) (var14 Int) (var15 Int) (var16 Heap)) (or (not (and (inv_main71 var16 var15 var14 var13 var12 var11 var10 var9) (and (<= 0 (+ (+ var8 (- 1)) (- 1))) (and (is-O_node (read var16 var10)) (and (and (and (and (and (and (and (and (= var7 var16) (= var6 var15)) (= var5 var14)) (= var4 var13)) (= var3 var12)) (= var2 var11)) (= var1 var10)) (= var8 var9)) (= var0 (next (getnode (read var16 var10))))))))) (inv_main71 var7 var6 var5 var4 var3 var2 var0 (+ var8 (- 1))))))
(assert (forall ((var0 Int) (var1 Addr) (var2 Int) (var3 Int) (var4 Heap)) (or (not (and (inv_main61 var4 var3 var2 var1 var0) (and (<= 0 (+ var0 (- 1))) (<= 0 (+ (+ var0 1) (- 1)))))) (inv_main71 var4 var3 var2 var1 var0 (+ var0 var3) var1 var0))))
(assert (forall ((var0 Int) (var1 Addr) (var2 Addr) (var3 Int) (var4 Int) (var5 Int) (var6 Int) (var7 node) (var8 Heap) (var9 Addr) (var10 Addr) (var11 Addr) (var12 Int) (var13 Int) (var14 Int) (var15 Int) (var16 Heap)) (or (not (and (inv_main22 var16 var15 var14 var13 var12 var11 var10) (and (and (not (= nullAddr var9)) (and (and (and (and (and (and (and (and (= var8 (newHeap (alloc var16 (O_node var7)))) (= var6 var15)) (= var5 var14)) (= var4 var13)) (= var3 var12)) (= var2 var11)) (= var1 var10)) (= var0 var12)) (= var9 (newAddr (alloc var16 (O_node var7)))))) (<= 0 (+ (+ var13 (- 1)) (- 1)))))) (inv_main29 var8 var6 var5 var4 var3 var2 var1 var0 var9))))
(assert (forall ((var0 Int) (var1 Addr) (var2 Int) (var3 Addr) (var4 Addr) (var5 Int) (var6 Int) (var7 Int) (var8 Int) (var9 Heap)) (or (not (inv_main32 var9 var8 var7 var6 var5 var4 var3 var2 var1 var0)) (inv_main32 var9 var8 var7 var6 var5 var4 var3 var2 var1 var0))))
(assert (forall ((var0 Int) (var1 Addr) (var2 Addr) (var3 Int) (var4 Int) (var5 Int) (var6 Int) (var7 node) (var8 Heap) (var9 Addr) (var10 Addr) (var11 Addr) (var12 Int) (var13 Int) (var14 Int) (var15 Int) (var16 Heap)) (or (not (and (inv_main22 var16 var15 var14 var13 var12 var11 var10) (and (and (= nullAddr var9) (and (and (and (and (and (and (and (and (= var8 (newHeap (alloc var16 (O_node var7)))) (= var6 var15)) (= var5 var14)) (= var4 var13)) (= var3 var12)) (= var2 var11)) (= var1 var10)) (= var0 var12)) (= var9 (newAddr (alloc var16 (O_node var7)))))) (<= 0 (+ (+ var13 (- 1)) (- 1)))))) (inv_main32 var8 var6 var5 var4 var3 var2 var1 var0 var9 1))))
(assert (forall ((var0 Addr) (var1 Int) (var2 Addr) (var3 Int) (var4 Int) (var5 Addr) (var6 Int) (var7 Int) (var8 Heap) (var9 Int) (var10 Int) (var11 Int) (var12 Addr) (var13 Int) (var14 Int) (var15 Addr) (var16 Int) (var17 Int) (var18 Heap)) (or (not (and (inv_main57 var18 var17 var16 var15 var14 var13 var12 var11 var10) (and (<= 0 (+ (+ var9 (- 1)) (- 1))) (and (is-O_node (read var18 var12)) (and (and (and (and (and (and (and (and (and (= var8 var18) (= var7 var17)) (= var6 var16)) (= var5 var15)) (= var4 var14)) (= var3 var13)) (= var2 var12)) (= var1 var11)) (= var9 var10)) (= var0 (next (getnode (read var18 var12))))))))) (inv_main57 var8 var7 var6 var5 var4 var3 var0 var1 (+ var9 (- 1))))))
(assert (forall ((var0 Int) (var1 Addr) (var2 Int) (var3 Int) (var4 Heap)) (or (not (and (inv_main49 var4 var3 var2 var1 var0) (and (<= 0 (+ var0 (- 1))) (<= 0 (+ (+ var0 1) (- 1)))))) (inv_main57 var4 var3 var2 var1 var0 (+ var0 var3) var1 (+ var0 var3) var0))))
(assert (forall ((var0 Int) (var1 Int) (var2 Int) (var3 Int) (var4 Int) (var5 node) (var6 Heap) (var7 Addr) (var8 Int) (var9 Int) (var10 Heap)) (or (not (and (inv_main4 var10 var9 var8) (and (not (= nullAddr var7)) (and (and (and (and (and (and (= var6 (newHeap (alloc var10 (O_node var5)))) (= var4 var9)) (= var3 var8)) (= var2 var9)) (= var1 var8)) (= var0 var8)) (= var7 (newAddr (alloc var10 (O_node var5)))))))) (inv_main12 var6 var4 var3 var2 var1 var0 var7))))
(assert (forall ((var0 Addr) (var1 Addr) (var2 Int) (var3 Int) (var4 Int) (var5 Int) (var6 Heap) (var7 Addr) (var8 Addr) (var9 Addr) (var10 Addr) (var11 Int) (var12 Int) (var13 Int) (var14 Int) (var15 Heap)) (or (not (and (inv_main38 var15 var14 var13 var12 var11 var10 var9 var8) (and (and (not (= var7 nullAddr)) (is-O_node (read var15 var8))) (and (and (and (and (and (and (and (= var6 (write var15 var8 (O_node (node var10 (prev (getnode (read var15 var8))) (data (getnode (read var15 var8))))))) (= var5 var14)) (= var4 var13)) (= var3 var12)) (= var2 var11)) (= var7 var10)) (= var1 var9)) (= var0 var8))))) (inv_main41 var6 var5 var4 var3 var2 var7 var1 var0))))
(assert (forall ((var0 Int) (var1 Addr) (var2 Int) (var3 Int) (var4 Heap)) (or (not (and (inv_main61 var4 var3 var2 var1 var0) (and (not (= nullAddr var1)) (not (<= 0 (+ (+ var0 1) (- 1))))))) (inv_main78 var4 var3 var2 var1 var0 var1))))
(assert (forall ((var0 Addr) (var1 Int) (var2 Int) (var3 Int) (var4 Int) (var5 Int) (var6 Heap)) (or (not (and (inv_main18 var6 var5 var4 var3 var2 var1 var0) (is-O_node (read var6 var0)))) (inv_main19 (write var6 var0 (O_node (node (next (getnode (read var6 var0))) nullAddr (data (getnode (read var6 var0)))))) var5 var4 var3 var2 var1 var0))))
(assert (forall ((var0 Int) (var1 Addr) (var2 Int) (var3 Int) (var4 Heap)) (or (not (and (inv_main49 var4 var3 var2 var1 var0) (not (<= 0 (+ (+ var0 1) (- 1)))))) (inv_main61 var4 var3 var2 var1 (+ var3 (- 1))))))
(assert (forall ((var0 Int) (var1 Addr) (var2 Int) (var3 Int) (var4 Heap) (var5 Int) (var6 Int) (var7 Int) (var8 Addr) (var9 Int) (var10 Int) (var11 Addr) (var12 Int) (var13 Int) (var14 Heap)) (or (not (and (inv_main70 var14 var13 var12 var11 var10 var9 var8 var7) (and (and (= var6 var5) (is-O_node (read var14 var8))) (and (and (and (and (and (and (= var4 var14) (= var3 var13)) (= var2 var12)) (= var1 var11)) (= var0 var10)) (= var6 var9)) (= var5 (data (getnode (read var14 var8)))))))) (inv_main61 var4 var3 var2 var1 (+ var0 (- 1))))))
(assert (forall ((var0 Int) (var1 Int) (var2 Addr) (var3 Int) (var4 Int) (var5 Addr) (var6 Int) (var7 Int) (var8 Heap) (var9 Int) (var10 Int) (var11 Addr) (var12 Int) (var13 Int) (var14 Addr) (var15 Int) (var16 Int) (var17 Heap)) (or (not (and (inv_main56 var17 var16 var15 var14 var13 var12 var11 var10 var9) (and (is-O_node (read var17 var11)) (and (and (and (and (and (and (and (and (= var8 (write var17 var11 (O_node (node (next (getnode (read var17 var11))) (prev (getnode (read var17 var11))) var10)))) (= var7 var16)) (= var6 var15)) (= var5 var14)) (= var4 var13)) (= var3 var12)) (= var2 var11)) (= var1 var10)) (= var0 var9))))) (inv_main49 var8 var7 var6 var5 (+ var4 (- 1))))))
(assert (forall ((var0 Addr) (var1 Addr) (var2 Int) (var3 Int) (var4 Int) (var5 Int) (var6 Heap) (var7 Addr) (var8 Addr) (var9 Int) (var10 Int) (var11 Int) (var12 Int) (var13 Heap)) (or (not (and (inv_main44 var13 var12 var11 var10 var9 var8 var7) (and (is-O_node (read var13 var8)) (and (and (and (and (and (and (= var6 (write var13 var8 (O_node (node (next (getnode (read var13 var8))) var7 (data (getnode (read var13 var8))))))) (= var5 var12)) (= var4 var11)) (= var3 var10)) (= var2 var9)) (= var1 var8)) (= var0 var7))))) (inv_main49 var6 var5 var4 var1 (+ var5 (- 1))))))
(assert (forall ((var0 Addr) (var1 Int) (var2 Int) (var3 Int) (var4 Int) (var5 Int) (var6 Heap)) (or (not (and (inv_main12 var6 var5 var4 var3 var2 var1 var0) (is-O_node (read var6 var0)))) (inv_main18 (write var6 var0 (O_node (node nullAddr (prev (getnode (read var6 var0))) (data (getnode (read var6 var0)))))) var5 var4 var3 var2 var1 var0))))
(assert (forall ((var0 Int) (var1 Addr) (var2 Int) (var3 Int) (var4 Heap) (var5 Addr) (var6 Addr) (var7 Addr) (var8 Int) (var9 Addr) (var10 Int) (var11 Int) (var12 Heap)) (or (not (and (inv_main78 var12 var11 var10 var9 var8 var7) (and (and (not (= var6 var5)) (is-O_node (read var12 var7))) (and (and (and (and (and (and (= var4 var12) (= var3 var11)) (= var2 var10)) (= var1 var9)) (= var0 var8)) (= var5 var7)) (= var6 (next (getnode (read var12 var7)))))))) (inv_main82 var4 var3 var2 var1 var0 var5 var6))))
(assert (forall ((var0 Addr) (var1 Int) (var2 Addr) (var3 Int) (var4 Int) (var5 Heap) (var6 Addr) (var7 Addr) (var8 Addr) (var9 Int) (var10 Addr) (var11 Int) (var12 Int) (var13 Heap) (var14 Addr) (var15 Addr) (var16 Addr) (var17 Addr) (var18 Int) (var19 Addr) (var20 Int) (var21 Int) (var22 Heap)) (or (not (and (inv_main82 var22 var21 var20 var19 var18 var17 var16) (and (not (= var15 var14)) (and (and (is-O_node (read var22 var16)) (and (and (and (and (and (and (and (= var13 var22) (= var12 var21)) (= var11 var20)) (= var10 var19)) (= var9 var18)) (= var8 var17)) (= var7 var16)) (= var6 (next (getnode (read var22 var16)))))) (and (and (and (and (and (and (and (= var5 (write var13 var7 defObj)) (= var4 var12)) (= var3 var11)) (= var2 var10)) (= var1 var9)) (= var14 var8)) (= var0 var7)) (= var15 var6)))))) (inv_main82 var5 var4 var3 var2 var1 var14 var15))))
(assert (forall ((var0 Int) (var1 Addr) (var2 Int) (var3 Int) (var4 Int) (var5 Int) (var6 Int) (var7 Heap)) (or (not (inv_main15 var7 var6 var5 var4 var3 var2 var1 var0)) (inv_main15 var7 var6 var5 var4 var3 var2 var1 var0))))
(assert (forall ((var0 Int) (var1 Int) (var2 Int) (var3 Int) (var4 Int) (var5 node) (var6 Heap) (var7 Addr) (var8 Int) (var9 Int) (var10 Heap)) (or (not (and (inv_main4 var10 var9 var8) (and (= nullAddr var7) (and (and (and (and (and (and (= var6 (newHeap (alloc var10 (O_node var5)))) (= var4 var9)) (= var3 var8)) (= var2 var9)) (= var1 var8)) (= var0 var8)) (= var7 (newAddr (alloc var10 (O_node var5)))))))) (inv_main15 var6 var4 var3 var2 var1 var0 var7 1))))
(assert (forall ((var0 Addr) (var1 Int) (var2 Addr) (var3 Addr) (var4 Int) (var5 Int) (var6 Int) (var7 Int) (var8 Heap)) (or (not (and (inv_main35 var8 var7 var6 var5 var4 var3 var2 var1 var0) (is-O_node (read var8 var0)))) (inv_main36 (write var8 var0 (O_node (node (next (getnode (read var8 var0))) nullAddr (data (getnode (read var8 var0)))))) var7 var6 var5 var4 var3 var2 var1 var0))))
(assert (forall ((var0 Addr) (var1 Int) (var2 Addr) (var3 Addr) (var4 Int) (var5 Int) (var6 Int) (var7 Int) (var8 Heap) (var9 Addr) (var10 Int) (var11 Addr) (var12 Addr) (var13 Int) (var14 Int) (var15 Int) (var16 Int) (var17 Heap)) (or (not (and (inv_main36 var17 var16 var15 var14 var13 var12 var11 var10 var9) (and (is-O_node (read var17 var9)) (and (and (and (and (and (and (and (and (= var8 (write var17 var9 (O_node (node (next (getnode (read var17 var9))) (prev (getnode (read var17 var9))) var10)))) (= var7 var16)) (= var6 var15)) (= var5 var14)) (= var4 var13)) (= var3 var12)) (= var2 var11)) (= var1 var10)) (= var0 var9))))) (inv_main38 var8 var7 var6 var5 var4 var3 var2 var0))))
(assert (forall ((var0 Addr) (var1 Addr) (var2 Addr) (var3 Int) (var4 Int) (var5 Int) (var6 Int) (var7 Heap) (var8 Addr) (var9 Addr) (var10 Addr) (var11 Int) (var12 Int) (var13 Int) (var14 Int) (var15 Heap)) (or (not (and (inv_main41 var15 var14 var13 var12 var11 var10 var9 var8) (and (is-O_node (read var15 var10)) (and (and (and (and (and (and (and (= var7 (write var15 var10 (O_node (node (next (getnode (read var15 var10))) var8 (data (getnode (read var15 var10))))))) (= var6 var14)) (= var5 var13)) (= var4 var12)) (= var3 var11)) (= var2 var10)) (= var1 var9)) (= var0 var8))))) (inv_main22 var7 var6 var5 (+ var4 (- 1)) var3 var0 var1))))
(assert (forall ((var0 Addr) (var1 Addr) (var2 Int) (var3 Int) (var4 Int) (var5 Int) (var6 Heap) (var7 Addr) (var8 Addr) (var9 Addr) (var10 Addr) (var11 Int) (var12 Int) (var13 Int) (var14 Int) (var15 Heap)) (or (not (and (inv_main38 var15 var14 var13 var12 var11 var10 var9 var8) (and (and (= var7 nullAddr) (is-O_node (read var15 var8))) (and (and (and (and (and (and (and (= var6 (write var15 var8 (O_node (node var10 (prev (getnode (read var15 var8))) (data (getnode (read var15 var8))))))) (= var5 var14)) (= var4 var13)) (= var3 var12)) (= var2 var11)) (= var7 var10)) (= var1 var9)) (= var0 var8))))) (inv_main22 var6 var5 var4 (+ var3 (- 1)) var2 var0 var1))))
(assert (forall ((var0 Addr) (var1 Int) (var2 Int) (var3 Int) (var4 Int) (var5 Int) (var6 Heap) (var7 Addr) (var8 Int) (var9 Int) (var10 Int) (var11 Int) (var12 Int) (var13 Heap)) (or (not (and (inv_main19 var13 var12 var11 var10 var9 var8 var7) (and (is-O_node (read var13 var7)) (and (and (and (and (and (and (= var6 (write var13 var7 (O_node (node (next (getnode (read var13 var7))) (prev (getnode (read var13 var7))) var8)))) (= var5 var12)) (= var4 var11)) (= var3 var10)) (= var2 var9)) (= var1 var8)) (= var0 var7))))) (inv_main22 var6 var5 var4 var3 var2 var0 var0))))
(assert (forall ((var0 Int) (var1 Addr) (var2 Int) (var3 Int) (var4 Heap) (var5 Int) (var6 Int) (var7 Int) (var8 Addr) (var9 Int) (var10 Int) (var11 Addr) (var12 Int) (var13 Int) (var14 Heap)) (or (not (and (inv_main70 var14 var13 var12 var11 var10 var9 var8 var7) (and (and (not (= var6 var5)) (is-O_node (read var14 var8))) (and (and (and (and (and (and (= var4 var14) (= var3 var13)) (= var2 var12)) (= var1 var11)) (= var0 var10)) (= var6 var9)) (= var5 (data (getnode (read var14 var8)))))))) (inv_main85 var4 var3 var2 var1 var0))))
(assert (forall ((var0 Addr) (var1 Int) (var2 Int) (var3 Int) (var4 Int) (var5 Int) (var6 Heap)) (not (and (inv_main12 var6 var5 var4 var3 var2 var1 var0) (not (is-O_node (read var6 var0)))))))
(assert (forall ((var0 Addr) (var1 Int) (var2 Int) (var3 Int) (var4 Int) (var5 Int) (var6 Heap)) (not (and (inv_main18 var6 var5 var4 var3 var2 var1 var0) (not (is-O_node (read var6 var0)))))))
(assert (forall ((var0 Addr) (var1 Int) (var2 Int) (var3 Int) (var4 Int) (var5 Int) (var6 Heap)) (not (and (inv_main19 var6 var5 var4 var3 var2 var1 var0) (not (is-O_node (read var6 var0)))))))
(assert (forall ((var0 Addr) (var1 Int) (var2 Addr) (var3 Addr) (var4 Int) (var5 Int) (var6 Int) (var7 Int) (var8 Heap)) (not (and (inv_main29 var8 var7 var6 var5 var4 var3 var2 var1 var0) (not (is-O_node (read var8 var0)))))))
(assert (forall ((var0 Addr) (var1 Int) (var2 Addr) (var3 Addr) (var4 Int) (var5 Int) (var6 Int) (var7 Int) (var8 Heap)) (not (and (inv_main35 var8 var7 var6 var5 var4 var3 var2 var1 var0) (not (is-O_node (read var8 var0)))))))
(assert (forall ((var0 Addr) (var1 Int) (var2 Addr) (var3 Addr) (var4 Int) (var5 Int) (var6 Int) (var7 Int) (var8 Heap)) (not (and (inv_main36 var8 var7 var6 var5 var4 var3 var2 var1 var0) (not (is-O_node (read var8 var0)))))))
(assert (forall ((var0 Addr) (var1 Addr) (var2 Addr) (var3 Int) (var4 Int) (var5 Int) (var6 Int) (var7 Heap)) (not (and (inv_main38 var7 var6 var5 var4 var3 var2 var1 var0) (not (is-O_node (read var7 var0)))))))
(assert (forall ((var0 Addr) (var1 Addr) (var2 Addr) (var3 Int) (var4 Int) (var5 Int) (var6 Int) (var7 Heap)) (not (and (inv_main41 var7 var6 var5 var4 var3 var2 var1 var0) (not (is-O_node (read var7 var2)))))))
(assert (forall ((var0 Addr) (var1 Addr) (var2 Int) (var3 Int) (var4 Int) (var5 Int) (var6 Heap)) (not (and (inv_main23 var6 var5 var4 var3 var2 var1 var0) (not (is-O_node (read var6 var0)))))))
(assert (forall ((var0 Addr) (var1 Addr) (var2 Int) (var3 Int) (var4 Int) (var5 Int) (var6 Heap)) (not (and (inv_main44 var6 var5 var4 var3 var2 var1 var0) (not (is-O_node (read var6 var1)))))))
(assert (forall ((var0 Int) (var1 Int) (var2 Addr) (var3 Int) (var4 Int) (var5 Addr) (var6 Int) (var7 Int) (var8 Heap)) (not (and (inv_main57 var8 var7 var6 var5 var4 var3 var2 var1 var0) (not (is-O_node (read var8 var2)))))))
(assert (forall ((var0 Int) (var1 Int) (var2 Addr) (var3 Int) (var4 Int) (var5 Addr) (var6 Int) (var7 Int) (var8 Heap)) (not (and (inv_main56 var8 var7 var6 var5 var4 var3 var2 var1 var0) (not (is-O_node (read var8 var2)))))))
(assert (forall ((var0 Int) (var1 Addr) (var2 Int) (var3 Int) (var4 Addr) (var5 Int) (var6 Int) (var7 Heap)) (not (and (inv_main71 var7 var6 var5 var4 var3 var2 var1 var0) (not (is-O_node (read var7 var1)))))))
(assert (forall ((var0 Int) (var1 Addr) (var2 Int) (var3 Int) (var4 Addr) (var5 Int) (var6 Int) (var7 Heap)) (not (and (inv_main70 var7 var6 var5 var4 var3 var2 var1 var0) (not (is-O_node (read var7 var1)))))))
(assert (forall ((var0 Addr) (var1 Int) (var2 Addr) (var3 Int) (var4 Int) (var5 Heap)) (not (and (inv_main78 var5 var4 var3 var2 var1 var0) (not (is-O_node (read var5 var0)))))))
(assert (forall ((var0 Addr) (var1 Addr) (var2 Int) (var3 Addr) (var4 Int) (var5 Int) (var6 Heap)) (not (and (inv_main82 var6 var5 var4 var3 var2 var1 var0) (not (is-O_node (read var6 var0)))))))
(assert (forall ((var0 Int) (var1 Addr) (var2 Int) (var3 Int) (var4 Heap)) (not (inv_main85 var4 var3 var2 var1 var0))))
(check-sat)
